NAME: random-14-11257
TYPE: TSP
COMMENT: size=14 seed=11257
DIMENSION: 30
EDGE_WEIGHT_TYPE: EUC_2D
NODE_COORD_SECTION
+0 399 433
-0 399 433
+1 951 696
-1 545 919
+2 249 126
-2 981 396
+3 406 111
-3 812 857
+4 954 711
-4 428 740
+5 618 476
-5 603 318
+6 245 424
-6 798 879
+7 458 324
-7 120 22
+8 346 121
-8 128 663
+9 316 735
-9 871 533
+10 859 884
-10 303 792
+11 547 219
-11 426 914
+12 215 685
-12 941 402
+13 584 790
-13 208 452
+14 896 84
-14 812 464
PRECEDENCE_SECTION
+0 -0
+1 -1
+2 -2
+3 -3
+4 -4
+5 -5
+6 -6
+7 -7
+8 -8
+9 -9
+10 -10
+11 -11
+12 -12
+13 -13
+14 -14
EOF
